10J3M/DAT/10J3MULX-16.dat
10 3
16.8674 4.107
12.7218 3.5668
49.6454 7.0459
45.9182 6.7763
41.9238 6.4749
8.1211 2.8498
10.3067 3.2104
10.9031 3.302
27.398 5.2343
26.0655 5.1054
15.8909