10J3M/SOL/10J3MULX-16.sol
solution status: optimal solution found
objective value:                     83.2902383430416
x#1#1                               0.257932294589647 	(obj:0)
x#1#2                               0.742067705410353 	(obj:0)
x#2#3                                               1 	(obj:0)
x#3#1                              0.0569937220398132 	(obj:0)
x#3#3                               0.943006277960187 	(obj:0)
x#4#2                               0.784145856163469 	(obj:0)
x#4#3                               0.215854143836531 	(obj:0)
x#5#1                                               1 	(obj:0)
x#6#1                               0.999964909818232 	(obj:0)
x#7#2                               0.714963982294781 	(obj:0)
x#7#3                               0.285036017705219 	(obj:0)
x#8#3                                               1 	(obj:0)
x#9#2                                               1 	(obj:0)
x#10#1                                              1 	(obj:0)
z                                    83.2902383430416 	(obj:1)
